p cnf 10 50
-10 -5 -6 0
7 8 2 0
-7 -9 -4 0
-1 -5 -8 0
1 -10 6 0
-6 4 -10 0
10 3 1 0
1 -4 -9 0
9 -1 -5 0
-5 -7 -8 0
-8 -7 3 0
-5 -9 -10 0
-7 9 5 0
-6 2 -3 0
-4 10 9 0
-5 6 10 0
-4 2 -3 0
8 2 1 0
-8 -9 -1 0
6 -8 9 0
-5 -1 8 0
8 3 4 0
8 5 1 0
-10 -1 -8 0
10 -3 9 0
-9 -10 -4 0
5 7 4 0
7 -8 -6 0
2 10 7 0
-1 -4 -8 0
-9 8 -1 0
-7 -10 -4 0
5 -1 10 0
-4 -1 6 0
-10 4 -9 0
-10 8 -3 0
10 2 5 0
9 -4 -10 0
9 -3 7 0
4 -10 5 0
-8 9 -6 0
2 -9 -3 0
4 5 -10 0
2 3 10 0
-2 -7 6 0
-5 -4 -1 0
-7 -10 -6 0
-2 -10 8 0
-2 -4 10 0
-7 8 -3 0